nApps = 52
nRes = 6
nActs = 108
nNetworks = 4

assignmentToResources = [2,1,2,1,1,1,2,2,2,2,1,1,2,1,2,2,2,1,1,1,2,1,1,1,2,1,2,1,1,2,4,4,4,3,3,3,4,4,4,3,3,3,3,4,4,4,4,3,4,4,3,3,4,4,4,3,3,3,4,4,3,3,6,4,5,4,5,3,6,4,5,3,6,4,5,4,5,5,5,5,6,6,6,5,5,5,6,6,6,6,5,5,5,5,6,5,5,6,6,5,5,5,6,6,6,5,5,6];

processingTimes = [152,160,64,56,136,136,104,144,136,144,104,88,128,120,64,120,88,136,152,136,88,48,128,88,88,72,128,104,128,88,4,500,13,3,1000,5,500,500,4,3,3,5,5,500,500,8,4,1000,3,4,4,4,3,3,150,8,4,4,500,500,4,3,3,8,8,500,500,500,500,500,500,4,4,4,4,13,13,4,500,13,3,1000,5,500,500,4,3,3,5,5,500,500,8,4,1000,3,4,4,4,3,3,150,8,4,4,500,500,4];

periods = [10000,10000,10000,10000,10000,2000,10000,10000,2000,10000,10000,10000,10000,10000,10000,10000,10000,5000,10000,10000,1000,1000,10000,10000,10000,10000,10000,10000,10000,10000,10000,10000,10000,10000,10000,10000,10000,10000,10000,10000,10000,10000,2000,10000,10000,10000,10000,10000,10000,10000,5000,10000,1000,1000,1000,10000,10000,10000,10000,10000,10000,10000,10000,10000,10000,10000,10000,10000,10000,10000,10000,10000,10000,10000,10000,10000,10000,10000,10000,10000,10000,10000,10000,10000,10000,10000,10000,10000,10000,2000,10000,10000,10000,10000,10000,10000,10000,5000,10000,1000,1000,1000,10000,10000,10000,10000,10000,10000];

assignmentToClusters = [1,2,3,4,3,5,6,2,7,8,9,8,2,10,11,3,8,12,2,13,14,15,3,16,13,17,18,19,20,21,22,23,24,25,26,27,28,29,30,31,32,33,34,35,36,37,38,39,40,41,42,43,44,45,46,47,48,49,50,51,52,2,2,2,2,3,3,3,3,3,3,8,8,8,8,13,13,22,23,24,25,26,27,28,29,30,31,32,33,34,35,36,37,38,39,40,41,42,43,44,45,46,47,48,49,50,51,52];

precedenceAdjList = [[],[],[],[],[66],[],[],[12],[],[72],[],[74],[62],[],[],[68],[],[],[64],[76],[],[],[70],[],[],[],[],[],[],[],[],[],[],[],[],[],[],[],[],[],[],[],[],[],[],[],[],[],[],[],[],[],[],[],[],[],[],[],[],[],[],[1],[61],[7],[63],[2],[65],[4],[67],[15],[69],[11],[71],[16],[73],[24],[75],[30],[31],[32],[33],[34],[35],[36],[37],[38],[39],[40],[41],[42],[43],[44],[45],[46],[47],[48],[49],[50],[51],[52],[53],[54],[55],[56],[57],[58],[59],[60]];